DATASET = "thpack7";
INSTANCE = "084";

WIDTH = 233;
HEIGHT = 220;
LENGTH = 587;

NO_OF_SHAPES = 20;
size = [|
  114,77,42 |
  105,81,74 |
  76,73,50 |
  104,91,41 |
  75,70,23 |
  93,67,20 |
  89,54,25 |
  89,46,28 |
  36,35,24 |
  72,50,29 |
  72,41,38 |
  84,32,24 |
  85,53,31 |
  115,94,38 |
  60,51,38 |
  74,46,40 |
  52,50,41 |
  85,58,50 |
  116,78,34 |
  85,53,41 |
|];

verticality = [|
  0,1,1 |
  1,1,1 |
  1,1,1 |
  0,0,1 |
  0,0,1 |
  0,0,1 |
  0,0,1 |
  0,1,1 |
  1,1,1 |
  0,1,1 |
  1,1,1 |
  0,1,1 |
  0,1,1 |
  0,0,1 |
  1,1,1 |
  1,1,1 |
  1,1,1 |
  1,1,1 |
  0,0,1 |
  0,1,1 |
|];

box_count = [
  8,
  5,
  9,
  10,
  6,
  8,
  6,
  10,
  7,
  8,
  9,
  9,
  5,
  5,
  10,
  8,
  10,
  10,
  5,
  6,
];
